2940.16 0
0 152 175 187 97 32 192 90 197 196 194 86 157 0
0 8 178 180 71 16 182 183 185 184 191 195 0
0 56 163 189 165 164 170 11 179 171 173 82 139 0
0 147 73 92 148 169 176 98 94 156 199 160 158 0
0 124 37 138 155 140 141 68 89 143 41 53 144 24 76 126 0
0 125 121 174 122 128 177 132 119 129 131 31 3 95 0
0 111 108 109 110 118 107 117 159 104 115 113 114 112 0
0 79 103 64 101 91 142 137 105 96 188 49 181 106 168 100 35 102 0
0 151 81 87 21 83 133 84 85 38 77 80 150 149 0
0 67 74 63 65 15 123 70 78 69 134 52 162 75 0
0 54 58 59 172 28 198 62 55 161 39 57 60 0
0 116 43 42 48 47 154 45 46 51 40 44 0
0 130 12 50 34 99 88 166 36 93 186 193 0
0 17 146 25 26 27 13 29 30 33 61 0
0 20 167 19 14 7 72 18 135 23 190 136 22 6 0
0 1 66 2 120 5 153 4 127 10 9 145 0